p cnf 400 1737
399 -66 -65 0
397 -65 0
397 -66 0
400 -64 -63 0
398 -63 0
398 -64 0
395 -62 -61 0
393 -61 0
393 -62 0
396 -60 -59 0
394 -59 0
394 -60 0
391 -58 -57 0
389 -57 0
389 -58 0
392 -56 -55 0
390 -55 0
390 -56 0
387 -54 -53 0
385 -53 0
385 -54 0
388 -52 -51 0
386 -51 0
386 -52 0
383 -50 -49 0
381 -49 0
381 -50 0
384 -48 -47 0
382 -47 0
382 -48 0
379 -46 -45 0
377 -45 0
377 -46 0
380 -44 -43 0
378 -43 0
378 -44 0
375 -42 -41 0
373 -41 0
373 -42 0
376 -40 -39 0
374 -39 0
374 -40 0
371 -38 -37 0
369 -37 0
369 -38 0
372 -36 -35 0
370 -35 0
370 -36 0
367 -34 -33 0
365 -33 0
365 -34 0
368 -32 -31 0
366 -31 0
366 -32 0
363 -30 -29 0
361 -29 0
361 -30 0
364 -28 -27 0
362 -27 0
362 -28 0
359 -26 -25 0
357 -25 0
357 -26 0
360 -24 -23 0
358 -23 0
358 -24 0
355 -22 -21 0
353 -21 0
353 -22 0
356 -20 -19 0
354 -19 0
354 -20 0
351 -18 -17 0
349 -17 0
349 -18 0
352 -16 -15 0
350 -15 0
350 -16 0
347 -14 -13 0
345 -13 0
345 -14 0
348 -12 -11 0
346 -11 0
346 -12 0
343 -10 -9 0
341 -9 0
341 -10 0
344 -8 -7 0
342 -7 0
342 -8 0
339 -6 -5 0
337 -5 0
337 -6 0
340 -4 -3 0
338 -3 0
338 -4 0
333 -2 -1 0
331 -1 0
331 -2 0
336 -399 -400 0
335 -397 -400 0
335 -399 -398 0
334 -400 0
334 -397 -398 0
334 -399 0
332 -398 0
332 -397 0
329 -395 -396 0
327 -393 -396 0
327 -395 -394 0
325 -396 0
325 -393 -394 0
325 -395 0
323 -394 0
323 -393 0
330 -391 -392 0
328 -389 -392 0
328 -391 -390 0
326 -392 0
326 -389 -390 0
326 -391 0
324 -390 0
324 -389 0
321 -387 -388 0
319 -385 -388 0
319 -387 -386 0
317 -388 0
317 -385 -386 0
317 -387 0
315 -386 0
315 -385 0
322 -383 -384 0
320 -381 -384 0
320 -383 -382 0
318 -384 0
318 -381 -382 0
318 -383 0
316 -382 0
316 -381 0
313 -379 -380 0
311 -377 -380 0
311 -379 -378 0
309 -380 0
309 -377 -378 0
309 -379 0
307 -378 0
307 -377 0
314 -375 -376 0
312 -373 -376 0
312 -375 -374 0
310 -376 0
310 -373 -374 0
310 -375 0
308 -374 0
308 -373 0
305 -371 -372 0
303 -369 -372 0
303 -371 -370 0
301 -372 0
301 -369 -370 0
301 -371 0
299 -370 0
299 -369 0
306 -367 -368 0
304 -365 -368 0
304 -367 -366 0
302 -368 0
302 -365 -366 0
302 -367 0
300 -366 0
300 -365 0
297 -363 -364 0
295 -361 -364 0
295 -363 -362 0
293 -364 0
293 -361 -362 0
293 -363 0
291 -362 0
291 -361 0
298 -359 -360 0
296 -357 -360 0
296 -359 -358 0
294 -360 0
294 -357 -358 0
294 -359 0
292 -358 0
292 -357 0
289 -355 -356 0
287 -353 -356 0
287 -355 -354 0
285 -356 0
285 -353 -354 0
285 -355 0
283 -354 0
283 -353 0
290 -351 -352 0
288 -349 -352 0
288 -351 -350 0
286 -352 0
286 -349 -350 0
286 -351 0
284 -350 0
284 -349 0
281 -347 -348 0
279 -345 -348 0
279 -347 -346 0
277 -348 0
277 -345 -346 0
277 -347 0
275 -346 0
275 -345 0
282 -343 -344 0
280 -341 -344 0
280 -343 -342 0
278 -344 0
278 -341 -342 0
278 -343 0
276 -342 0
276 -341 0
271 -339 -340 0
269 -337 -340 0
269 -339 -338 0
267 -340 0
267 -337 -338 0
267 -339 0
265 -338 0
265 -337 0
274 -333 -336 0
273 -331 -336 0
273 -333 -335 0
272 -336 0
272 -331 -335 0
272 -333 -334 0
270 -335 0
270 -331 -334 0
270 -333 -332 0
268 -334 0
268 -331 -332 0
268 -333 0
266 -332 0
266 -331 0
263 -329 -330 0
261 -327 -330 0
261 -329 -328 0
259 -325 -330 0
259 -327 -328 0
259 -329 -326 0
257 -323 -330 0
257 -325 -328 0
257 -327 -326 0
257 -329 -324 0
255 -330 0
255 -323 -328 0
255 -325 -326 0
255 -327 -324 0
255 -329 0
253 -328 0
253 -323 -326 0
253 -325 -324 0
253 -327 0
251 -326 0
251 -323 -324 0
251 -325 0
249 -324 0
249 -323 0
264 -321 -322 0
262 -319 -322 0
262 -321 -320 0
260 -317 -322 0
260 -319 -320 0
260 -321 -318 0
258 -315 -322 0
258 -317 -320 0
258 -319 -318 0
258 -321 -316 0
256 -322 0
256 -315 -320 0
256 -317 -318 0
256 -319 -316 0
256 -321 0
254 -320 0
254 -315 -318 0
254 -317 -316 0
254 -319 0
252 -318 0
252 -315 -316 0
252 -317 0
250 -316 0
250 -315 0
247 -313 -314 0
245 -311 -314 0
245 -313 -312 0
243 -309 -314 0
243 -311 -312 0
243 -313 -310 0
241 -307 -314 0
241 -309 -312 0
241 -311 -310 0
241 -313 -308 0
239 -314 0
239 -307 -312 0
239 -309 -310 0
239 -311 -308 0
239 -313 0
237 -312 0
237 -307 -310 0
237 -309 -308 0
237 -311 0
235 -310 0
235 -307 -308 0
235 -309 0
233 -308 0
233 -307 0
248 -305 -306 0
246 -303 -306 0
246 -305 -304 0
244 -301 -306 0
244 -303 -304 0
244 -305 -302 0
242 -299 -306 0
242 -301 -304 0
242 -303 -302 0
242 -305 -300 0
240 -306 0
240 -299 -304 0
240 -301 -302 0
240 -303 -300 0
240 -305 0
238 -304 0
238 -299 -302 0
238 -301 -300 0
238 -303 0
236 -302 0
236 -299 -300 0
236 -301 0
234 -300 0
234 -299 0
231 -297 -298 0
229 -295 -298 0
229 -297 -296 0
227 -293 -298 0
227 -295 -296 0
227 -297 -294 0
225 -291 -298 0
225 -293 -296 0
225 -295 -294 0
225 -297 -292 0
223 -298 0
223 -291 -296 0
223 -293 -294 0
223 -295 -292 0
223 -297 0
221 -296 0
221 -291 -294 0
221 -293 -292 0
221 -295 0
219 -294 0
219 -291 -292 0
219 -293 0
217 -292 0
217 -291 0
232 -289 -290 0
230 -287 -290 0
230 -289 -288 0
228 -285 -290 0
228 -287 -288 0
228 -289 -286 0
226 -283 -290 0
226 -285 -288 0
226 -287 -286 0
226 -289 -284 0
224 -290 0
224 -283 -288 0
224 -285 -286 0
224 -287 -284 0
224 -289 0
222 -288 0
222 -283 -286 0
222 -285 -284 0
222 -287 0
220 -286 0
220 -283 -284 0
220 -285 0
218 -284 0
218 -283 0
213 -281 -282 0
211 -279 -282 0
211 -281 -280 0
209 -277 -282 0
209 -279 -280 0
209 -281 -278 0
207 -275 -282 0
207 -277 -280 0
207 -279 -278 0
207 -281 -276 0
205 -282 0
205 -275 -280 0
205 -277 -278 0
205 -279 -276 0
205 -281 0
203 -280 0
203 -275 -278 0
203 -277 -276 0
203 -279 0
201 -278 0
201 -275 -276 0
201 -277 0
199 -276 0
199 -275 0
216 -271 -274 0
215 -269 -274 0
215 -271 -273 0
214 -267 -274 0
214 -269 -273 0
214 -271 -272 0
212 -265 -274 0
212 -267 -273 0
212 -269 -272 0
212 -271 -270 0
210 -274 0
210 -265 -273 0
210 -267 -272 0
210 -269 -270 0
210 -271 -268 0
208 -273 0
208 -265 -272 0
208 -267 -270 0
208 -269 -268 0
208 -271 -266 0
206 -272 0
206 -265 -270 0
206 -267 -268 0
206 -269 -266 0
206 -271 0
204 -270 0
204 -265 -268 0
204 -267 -266 0
204 -269 0
202 -268 0
202 -265 -266 0
202 -267 0
200 -266 0
200 -265 0
197 -263 -264 0
195 -261 -264 0
195 -263 -262 0
193 -259 -264 0
193 -261 -262 0
193 -263 -260 0
191 -257 -264 0
191 -259 -262 0
191 -261 -260 0
191 -263 -258 0
189 -255 -264 0
189 -257 -262 0
189 -259 -260 0
189 -261 -258 0
189 -263 -256 0
187 -253 -264 0
187 -255 -262 0
187 -257 -260 0
187 -259 -258 0
187 -261 -256 0
187 -263 -254 0
185 -251 -264 0
185 -253 -262 0
185 -255 -260 0
185 -257 -258 0
185 -259 -256 0
185 -261 -254 0
185 -263 -252 0
183 -249 -264 0
183 -251 -262 0
183 -253 -260 0
183 -255 -258 0
183 -257 -256 0
183 -259 -254 0
183 -261 -252 0
183 -263 -250 0
181 -264 0
181 -249 -262 0
181 -251 -260 0
181 -253 -258 0
181 -255 -256 0
181 -257 -254 0
181 -259 -252 0
181 -261 -250 0
181 -263 0
179 -262 0
179 -249 -260 0
179 -251 -258 0
179 -253 -256 0
179 -255 -254 0
179 -257 -252 0
179 -259 -250 0
179 -261 0
177 -260 0
177 -249 -258 0
177 -251 -256 0
177 -253 -254 0
177 -255 -252 0
177 -257 -250 0
177 -259 0
175 -258 0
175 -249 -256 0
175 -251 -254 0
175 -253 -252 0
175 -255 -250 0
175 -257 0
173 -256 0
173 -249 -254 0
173 -251 -252 0
173 -253 -250 0
173 -255 0
171 -254 0
171 -249 -252 0
171 -251 -250 0
171 -253 0
169 -252 0
169 -249 -250 0
169 -251 0
166 -250 0
166 -249 0
198 -247 -248 0
196 -245 -248 0
196 -247 -246 0
194 -243 -248 0
194 -245 -246 0
194 -247 -244 0
192 -241 -248 0
192 -243 -246 0
192 -245 -244 0
192 -247 -242 0
190 -239 -248 0
190 -241 -246 0
190 -243 -244 0
190 -245 -242 0
190 -247 -240 0
188 -237 -248 0
188 -239 -246 0
188 -241 -244 0
188 -243 -242 0
188 -245 -240 0
188 -247 -238 0
186 -235 -248 0
186 -237 -246 0
186 -239 -244 0
186 -241 -242 0
186 -243 -240 0
186 -245 -238 0
186 -247 -236 0
184 -233 -248 0
184 -235 -246 0
184 -237 -244 0
184 -239 -242 0
184 -241 -240 0
184 -243 -238 0
184 -245 -236 0
184 -247 -234 0
182 -248 0
182 -233 -246 0
182 -235 -244 0
182 -237 -242 0
182 -239 -240 0
182 -241 -238 0
182 -243 -236 0
182 -245 -234 0
182 -247 0
180 -246 0
180 -233 -244 0
180 -235 -242 0
180 -237 -240 0
180 -239 -238 0
180 -241 -236 0
180 -243 -234 0
180 -245 0
178 -244 0
178 -233 -242 0
178 -235 -240 0
178 -237 -238 0
178 -239 -236 0
178 -241 -234 0
178 -243 0
176 -242 0
176 -233 -240 0
176 -235 -238 0
176 -237 -236 0
176 -239 -234 0
176 -241 0
174 -240 0
174 -233 -238 0
174 -235 -236 0
174 -237 -234 0
174 -239 0
172 -238 0
172 -233 -236 0
172 -235 -234 0
172 -237 0
170 -236 0
170 -233 -234 0
170 -235 0
168 -234 0
168 -233 0
162 -231 -232 0
160 -229 -232 0
160 -231 -230 0
158 -227 -232 0
158 -229 -230 0
158 -231 -228 0
156 -225 -232 0
156 -227 -230 0
156 -229 -228 0
156 -231 -226 0
154 -223 -232 0
154 -225 -230 0
154 -227 -228 0
154 -229 -226 0
154 -231 -224 0
152 -221 -232 0
152 -223 -230 0
152 -225 -228 0
152 -227 -226 0
152 -229 -224 0
152 -231 -222 0
150 -219 -232 0
150 -221 -230 0
150 -223 -228 0
150 -225 -226 0
150 -227 -224 0
150 -229 -222 0
150 -231 -220 0
148 -217 -232 0
148 -219 -230 0
148 -221 -228 0
148 -223 -226 0
148 -225 -224 0
148 -227 -222 0
148 -229 -220 0
148 -231 -218 0
146 -232 0
146 -217 -230 0
146 -219 -228 0
146 -221 -226 0
146 -223 -224 0
146 -225 -222 0
146 -227 -220 0
146 -229 -218 0
146 -231 0
144 -230 0
144 -217 -228 0
144 -219 -226 0
144 -221 -224 0
144 -223 -222 0
144 -225 -220 0
144 -227 -218 0
144 -229 0
142 -228 0
142 -217 -226 0
142 -219 -224 0
142 -221 -222 0
142 -223 -220 0
142 -225 -218 0
142 -227 0
140 -226 0
140 -217 -224 0
140 -219 -222 0
140 -221 -220 0
140 -223 -218 0
140 -225 0
138 -224 0
138 -217 -222 0
138 -219 -220 0
138 -221 -218 0
138 -223 0
135 -222 0
135 -217 -220 0
135 -219 -218 0
135 -221 0
132 -220 0
132 -217 -218 0
132 -219 0
129 -218 0
129 -217 0
165 -213 -216 0
164 -211 -216 0
164 -213 -215 0
163 -209 -216 0
163 -211 -215 0
163 -213 -214 0
161 -207 -216 0
161 -209 -215 0
161 -211 -214 0
161 -213 -212 0
159 -205 -216 0
159 -207 -215 0
159 -209 -214 0
159 -211 -212 0
159 -213 -210 0
157 -203 -216 0
157 -205 -215 0
157 -207 -214 0
157 -209 -212 0
157 -211 -210 0
157 -213 -208 0
155 -201 -216 0
155 -203 -215 0
155 -205 -214 0
155 -207 -212 0
155 -209 -210 0
155 -211 -208 0
155 -213 -206 0
153 -199 -216 0
153 -201 -215 0
153 -203 -214 0
153 -205 -212 0
153 -207 -210 0
153 -209 -208 0
153 -211 -206 0
153 -213 -204 0
151 -216 0
151 -199 -215 0
151 -201 -214 0
151 -203 -212 0
151 -205 -210 0
151 -207 -208 0
151 -209 -206 0
151 -211 -204 0
151 -213 -202 0
149 -215 0
149 -199 -214 0
149 -201 -212 0
149 -203 -210 0
149 -205 -208 0
149 -207 -206 0
149 -209 -204 0
149 -211 -202 0
149 -213 -200 0
147 -214 0
147 -199 -212 0
147 -201 -210 0
147 -203 -208 0
147 -205 -206 0
147 -207 -204 0
147 -209 -202 0
147 -211 -200 0
147 -213 0
145 -212 0
145 -199 -210 0
145 -201 -208 0
145 -203 -206 0
145 -205 -204 0
145 -207 -202 0
145 -209 -200 0
145 -211 0
143 -210 0
143 -199 -208 0
143 -201 -206 0
143 -203 -204 0
143 -205 -202 0
143 -207 -200 0
143 -209 0
141 -208 0
141 -199 -206 0
141 -201 -204 0
141 -203 -202 0
141 -205 -200 0
141 -207 0
139 -206 0
139 -199 -204 0
139 -201 -202 0
139 -203 -200 0
139 -205 0
137 -204 0
137 -199 -202 0
137 -201 -200 0
137 -203 0
134 -202 0
134 -199 -200 0
134 -201 0
131 -200 0
131 -199 0
68 -197 -198 0
70 -195 -198 0
70 -197 -196 0
72 -193 -198 0
72 -195 -196 0
72 -197 -194 0
74 -191 -198 0
74 -193 -196 0
74 -195 -194 0
74 -197 -192 0
76 -189 -198 0
76 -191 -196 0
76 -193 -194 0
76 -195 -192 0
76 -197 -190 0
78 -187 -198 0
78 -189 -196 0
78 -191 -194 0
78 -193 -192 0
78 -195 -190 0
78 -197 -188 0
80 -185 -198 0
80 -187 -196 0
80 -189 -194 0
80 -191 -192 0
80 -193 -190 0
80 -195 -188 0
80 -197 -186 0
82 -183 -198 0
82 -185 -196 0
82 -187 -194 0
82 -189 -192 0
82 -191 -190 0
82 -193 -188 0
82 -195 -186 0
82 -197 -184 0
84 -181 -198 0
84 -183 -196 0
84 -185 -194 0
84 -187 -192 0
84 -189 -190 0
84 -191 -188 0
84 -193 -186 0
84 -195 -184 0
84 -197 -182 0
86 -179 -198 0
86 -181 -196 0
86 -183 -194 0
86 -185 -192 0
86 -187 -190 0
86 -189 -188 0
86 -191 -186 0
86 -193 -184 0
86 -195 -182 0
86 -197 -180 0
88 -177 -198 0
88 -179 -196 0
88 -181 -194 0
88 -183 -192 0
88 -185 -190 0
88 -187 -188 0
88 -189 -186 0
88 -191 -184 0
88 -193 -182 0
88 -195 -180 0
88 -197 -178 0
90 -175 -198 0
90 -177 -196 0
90 -179 -194 0
90 -181 -192 0
90 -183 -190 0
90 -185 -188 0
90 -187 -186 0
90 -189 -184 0
90 -191 -182 0
90 -193 -180 0
90 -195 -178 0
90 -197 -176 0
92 -173 -198 0
92 -175 -196 0
92 -177 -194 0
92 -179 -192 0
92 -181 -190 0
92 -183 -188 0
92 -185 -186 0
92 -187 -184 0
92 -189 -182 0
92 -191 -180 0
92 -193 -178 0
92 -195 -176 0
92 -197 -174 0
94 -171 -198 0
94 -173 -196 0
94 -175 -194 0
94 -177 -192 0
94 -179 -190 0
94 -181 -188 0
94 -183 -186 0
94 -185 -184 0
94 -187 -182 0
94 -189 -180 0
94 -191 -178 0
94 -193 -176 0
94 -195 -174 0
94 -197 -172 0
96 -169 -198 0
96 -171 -196 0
96 -173 -194 0
96 -175 -192 0
96 -177 -190 0
96 -179 -188 0
96 -181 -186 0
96 -183 -184 0
96 -185 -182 0
96 -187 -180 0
96 -189 -178 0
96 -191 -176 0
96 -193 -174 0
96 -195 -172 0
96 -197 -170 0
98 -166 -198 0
98 -169 -196 0
98 -171 -194 0
98 -173 -192 0
98 -175 -190 0
98 -177 -188 0
98 -179 -186 0
98 -181 -184 0
98 -183 -182 0
98 -185 -180 0
98 -187 -178 0
98 -189 -176 0
98 -191 -174 0
98 -193 -172 0
98 -195 -170 0
98 -197 -168 0
100 -198 0
100 -166 -196 0
100 -169 -194 0
100 -171 -192 0
100 -173 -190 0
100 -175 -188 0
100 -177 -186 0
100 -179 -184 0
100 -181 -182 0
100 -183 -180 0
100 -185 -178 0
100 -187 -176 0
100 -189 -174 0
100 -191 -172 0
100 -193 -170 0
100 -195 -168 0
100 -197 0
102 -196 0
102 -166 -194 0
102 -169 -192 0
102 -171 -190 0
102 -173 -188 0
102 -175 -186 0
102 -177 -184 0
102 -179 -182 0
102 -181 -180 0
102 -183 -178 0
102 -185 -176 0
102 -187 -174 0
102 -189 -172 0
102 -191 -170 0
102 -193 -168 0
102 -195 0
104 -194 0
104 -166 -192 0
104 -169 -190 0
104 -171 -188 0
104 -173 -186 0
104 -175 -184 0
104 -177 -182 0
104 -179 -180 0
104 -181 -178 0
104 -183 -176 0
104 -185 -174 0
104 -187 -172 0
104 -189 -170 0
104 -191 -168 0
104 -193 0
106 -192 0
106 -166 -190 0
106 -169 -188 0
106 -171 -186 0
106 -173 -184 0
106 -175 -182 0
106 -177 -180 0
106 -179 -178 0
106 -181 -176 0
106 -183 -174 0
106 -185 -172 0
106 -187 -170 0
106 -189 -168 0
106 -191 0
108 -190 0
108 -166 -188 0
108 -169 -186 0
108 -171 -184 0
108 -173 -182 0
108 -175 -180 0
108 -177 -178 0
108 -179 -176 0
108 -181 -174 0
108 -183 -172 0
108 -185 -170 0
108 -187 -168 0
108 -189 0
110 -188 0
110 -166 -186 0
110 -169 -184 0
110 -171 -182 0
110 -173 -180 0
110 -175 -178 0
110 -177 -176 0
110 -179 -174 0
110 -181 -172 0
110 -183 -170 0
110 -185 -168 0
110 -187 0
112 -186 0
112 -166 -184 0
112 -169 -182 0
112 -171 -180 0
112 -173 -178 0
112 -175 -176 0
112 -177 -174 0
112 -179 -172 0
112 -181 -170 0
112 -183 -168 0
112 -185 0
114 -184 0
114 -166 -182 0
114 -169 -180 0
114 -171 -178 0
114 -173 -176 0
114 -175 -174 0
114 -177 -172 0
114 -179 -170 0
114 -181 -168 0
114 -183 0
116 -182 0
116 -166 -180 0
116 -169 -178 0
116 -171 -176 0
116 -173 -174 0
116 -175 -172 0
116 -177 -170 0
116 -179 -168 0
116 -181 0
118 -180 0
118 -166 -178 0
118 -169 -176 0
118 -171 -174 0
118 -173 -172 0
118 -175 -170 0
118 -177 -168 0
118 -179 0
120 -178 0
120 -166 -176 0
120 -169 -174 0
120 -171 -172 0
120 -173 -170 0
120 -175 -168 0
120 -177 0
122 -176 0
122 -166 -174 0
122 -169 -172 0
122 -171 -170 0
122 -173 -168 0
122 -175 0
124 -174 0
124 -166 -172 0
124 -169 -170 0
124 -171 -168 0
124 -173 0
126 -172 0
126 -166 -170 0
126 -169 -168 0
126 -171 0
128 -170 0
128 -166 -168 0
128 -169 0
167 -168 0
167 -166 0
127 -162 -165 0
125 -160 -165 0
125 -162 -164 0
123 -158 -165 0
123 -160 -164 0
123 -162 -163 0
121 -156 -165 0
121 -158 -164 0
121 -160 -163 0
121 -162 -161 0
119 -154 -165 0
119 -156 -164 0
119 -158 -163 0
119 -160 -161 0
119 -162 -159 0
117 -152 -165 0
117 -154 -164 0
117 -156 -163 0
117 -158 -161 0
117 -160 -159 0
117 -162 -157 0
115 -150 -165 0
115 -152 -164 0
115 -154 -163 0
115 -156 -161 0
115 -158 -159 0
115 -160 -157 0
115 -162 -155 0
113 -148 -165 0
113 -150 -164 0
113 -152 -163 0
113 -154 -161 0
113 -156 -159 0
113 -158 -157 0
113 -160 -155 0
113 -162 -153 0
111 -146 -165 0
111 -148 -164 0
111 -150 -163 0
111 -152 -161 0
111 -154 -159 0
111 -156 -157 0
111 -158 -155 0
111 -160 -153 0
111 -162 -151 0
109 -144 -165 0
109 -146 -164 0
109 -148 -163 0
109 -150 -161 0
109 -152 -159 0
109 -154 -157 0
109 -156 -155 0
109 -158 -153 0
109 -160 -151 0
109 -162 -149 0
107 -142 -165 0
107 -144 -164 0
107 -146 -163 0
107 -148 -161 0
107 -150 -159 0
107 -152 -157 0
107 -154 -155 0
107 -156 -153 0
107 -158 -151 0
107 -160 -149 0
107 -162 -147 0
105 -140 -165 0
105 -142 -164 0
105 -144 -163 0
105 -146 -161 0
105 -148 -159 0
105 -150 -157 0
105 -152 -155 0
105 -154 -153 0
105 -156 -151 0
105 -158 -149 0
105 -160 -147 0
105 -162 -145 0
103 -138 -165 0
103 -140 -164 0
103 -142 -163 0
103 -144 -161 0
103 -146 -159 0
103 -148 -157 0
103 -150 -155 0
103 -152 -153 0
103 -154 -151 0
103 -156 -149 0
103 -158 -147 0
103 -160 -145 0
103 -162 -143 0
101 -135 -165 0
101 -138 -164 0
101 -140 -163 0
101 -142 -161 0
101 -144 -159 0
101 -146 -157 0
101 -148 -155 0
101 -150 -153 0
101 -152 -151 0
101 -154 -149 0
101 -156 -147 0
101 -158 -145 0
101 -160 -143 0
101 -162 -141 0
99 -132 -165 0
99 -135 -164 0
99 -138 -163 0
99 -140 -161 0
99 -142 -159 0
99 -144 -157 0
99 -146 -155 0
99 -148 -153 0
99 -150 -151 0
99 -152 -149 0
99 -154 -147 0
99 -156 -145 0
99 -158 -143 0
99 -160 -141 0
99 -162 -139 0
97 -129 -165 0
97 -132 -164 0
97 -135 -163 0
97 -138 -161 0
97 -140 -159 0
97 -142 -157 0
97 -144 -155 0
97 -146 -153 0
97 -148 -151 0
97 -150 -149 0
97 -152 -147 0
97 -154 -145 0
97 -156 -143 0
97 -158 -141 0
97 -160 -139 0
97 -162 -137 0
95 -165 0
95 -129 -164 0
95 -132 -163 0
95 -135 -161 0
95 -138 -159 0
95 -140 -157 0
95 -142 -155 0
95 -144 -153 0
95 -146 -151 0
95 -148 -149 0
95 -150 -147 0
95 -152 -145 0
95 -154 -143 0
95 -156 -141 0
95 -158 -139 0
95 -160 -137 0
95 -162 -134 0
93 -164 0
93 -129 -163 0
93 -132 -161 0
93 -135 -159 0
93 -138 -157 0
93 -140 -155 0
93 -142 -153 0
93 -144 -151 0
93 -146 -149 0
93 -148 -147 0
93 -150 -145 0
93 -152 -143 0
93 -154 -141 0
93 -156 -139 0
93 -158 -137 0
93 -160 -134 0
93 -162 -131 0
91 -163 0
91 -129 -161 0
91 -132 -159 0
91 -135 -157 0
91 -138 -155 0
91 -140 -153 0
91 -142 -151 0
91 -144 -149 0
91 -146 -147 0
91 -148 -145 0
91 -150 -143 0
91 -152 -141 0
91 -154 -139 0
91 -156 -137 0
91 -158 -134 0
91 -160 -131 0
91 -162 0
89 -161 0
89 -129 -159 0
89 -132 -157 0
89 -135 -155 0
89 -138 -153 0
89 -140 -151 0
89 -142 -149 0
89 -144 -147 0
89 -146 -145 0
89 -148 -143 0
89 -150 -141 0
89 -152 -139 0
89 -154 -137 0
89 -156 -134 0
89 -158 -131 0
89 -160 0
87 -159 0
87 -129 -157 0
87 -132 -155 0
87 -135 -153 0
87 -138 -151 0
87 -140 -149 0
87 -142 -147 0
87 -144 -145 0
87 -146 -143 0
87 -148 -141 0
87 -150 -139 0
87 -152 -137 0
87 -154 -134 0
87 -156 -131 0
87 -158 0
85 -157 0
85 -129 -155 0
85 -132 -153 0
85 -135 -151 0
85 -138 -149 0
85 -140 -147 0
85 -142 -145 0
85 -144 -143 0
85 -146 -141 0
85 -148 -139 0
85 -150 -137 0
85 -152 -134 0
85 -154 -131 0
85 -156 0
83 -155 0
83 -129 -153 0
83 -132 -151 0
83 -135 -149 0
83 -138 -147 0
83 -140 -145 0
83 -142 -143 0
83 -144 -141 0
83 -146 -139 0
83 -148 -137 0
83 -150 -134 0
83 -152 -131 0
83 -154 0
81 -153 0
81 -129 -151 0
81 -132 -149 0
81 -135 -147 0
81 -138 -145 0
81 -140 -143 0
81 -142 -141 0
81 -144 -139 0
81 -146 -137 0
81 -148 -134 0
81 -150 -131 0
81 -152 0
79 -151 0
79 -129 -149 0
79 -132 -147 0
79 -135 -145 0
79 -138 -143 0
79 -140 -141 0
79 -142 -139 0
79 -144 -137 0
79 -146 -134 0
79 -148 -131 0
79 -150 0
77 -149 0
77 -129 -147 0
77 -132 -145 0
77 -135 -143 0
77 -138 -141 0
77 -140 -139 0
77 -142 -137 0
77 -144 -134 0
77 -146 -131 0
77 -148 0
75 -147 0
75 -129 -145 0
75 -132 -143 0
75 -135 -141 0
75 -138 -139 0
75 -140 -137 0
75 -142 -134 0
75 -144 -131 0
75 -146 0
73 -145 0
73 -129 -143 0
73 -132 -141 0
73 -135 -139 0
73 -138 -137 0
73 -140 -134 0
73 -142 -131 0
73 -144 0
71 -143 0
71 -129 -141 0
71 -132 -139 0
71 -135 -137 0
71 -138 -134 0
71 -140 -131 0
71 -142 0
69 -141 0
69 -129 -139 0
69 -132 -137 0
69 -135 -134 0
69 -138 -131 0
69 -140 0
67 -139 0
67 -129 -137 0
67 -132 -134 0
67 -135 -131 0
67 -138 0
136 -137 0
136 -129 -134 0
136 -132 -131 0
136 -135 0
133 -134 0
133 -129 -131 0
133 -132 0
130 -131 0
130 -129 0
-128 -127 0
-126 -125 0
-124 -123 0
-122 -121 0
-120 -119 0
-118 -117 0
-116 -115 0
-114 -113 0
-112 -111 0
-110 -109 0
-108 -107 0
-106 -105 0
-104 -103 0
-102 -101 0
-100 -99 0
-98 -97 0
-96 -95 0
-94 -93 0
-92 -91 0
-90 -89 0
-88 -87 0
-86 -85 0
-84 -83 0
-82 -81 0
-80 -79 0
-78 -77 0
-76 -75 0
-74 -73 0
-72 -71 0
-70 -69 0
-68 -67 0
65 55 54 0
64 54 53 0
63 53 52 0
62 52 51 0
61 51 50 0
60 50 49 0
59 49 48 0
58 48 47 0
57 47 46 0
64 45 43 0
63 44 42 0
62 43 41 0
61 42 40 0
60 41 39 0
59 40 38 0
58 39 37 0
54 45 44 0
53 44 43 0
52 43 42 0
51 42 41 0
50 41 40 0
49 40 39 0
48 39 38 0
47 38 37 0
63 36 33 0
62 35 32 0
61 34 31 0
60 33 30 0
59 32 29 0
53 36 34 0
52 35 33 0
51 34 32 0
50 33 31 0
49 32 30 0
48 31 29 0
44 36 35 0
43 35 34 0
42 34 33 0
41 33 32 0
40 32 31 0
39 31 30 0
38 30 29 0
62 28 24 0
61 27 23 0
60 26 22 0
52 28 25 0
51 27 24 0
50 26 23 0
49 25 22 0
43 28 26 0
42 27 25 0
41 26 24 0
40 25 23 0
39 24 22 0
35 28 27 0
34 27 26 0
33 26 25 0
32 25 24 0
31 24 23 0
30 23 22 0
61 21 16 0
51 21 17 0
50 20 16 0
42 21 18 0
41 20 17 0
40 19 16 0
34 21 19 0
33 20 18 0
32 19 17 0
31 18 16 0
27 21 20 0
26 20 19 0
25 19 18 0
24 18 17 0
23 17 16 0
41 15 11 0
33 15 12 0
32 14 11 0
26 15 13 0
25 14 12 0
24 13 11 0
20 15 14 0
19 14 13 0
18 13 12 0
17 12 11 0
25 10 7 0
19 10 8 0
18 9 7 0
14 10 9 0
13 9 8 0
12 8 7 0
13 6 4 0
9 6 5 0
8 5 4 0
5 3 2 0
66 65 55 0
65 64 54 0
64 63 53 0
63 62 52 0
62 61 51 0
61 60 50 0
60 59 49 0
59 58 48 0
58 57 47 0
57 56 46 0
66 64 45 0
65 63 44 0
64 62 43 0
63 61 42 0
62 60 41 0
61 59 40 0
60 58 39 0
59 57 38 0
58 56 37 0
55 54 45 0
54 53 44 0
53 52 43 0
52 51 42 0
51 50 41 0
50 49 40 0
49 48 39 0
48 47 38 0
47 46 37 0
66 63 36 0
65 62 35 0
64 61 34 0
63 60 33 0
62 59 32 0
61 58 31 0
60 57 30 0
59 56 29 0
55 53 36 0
54 52 35 0
53 51 34 0
52 50 33 0
51 49 32 0
50 48 31 0
49 47 30 0
48 46 29 0
45 44 36 0
44 43 35 0
43 42 34 0
42 41 33 0
41 40 32 0
40 39 31 0
39 38 30 0
38 37 29 0
66 62 28 0
65 61 27 0
64 60 26 0
63 59 25 0
62 58 24 0
61 57 23 0
60 56 22 0
55 52 28 0
54 51 27 0
53 50 26 0
52 49 25 0
51 48 24 0
50 47 23 0
49 46 22 0
45 43 28 0
44 42 27 0
43 41 26 0
42 40 25 0
41 39 24 0
40 38 23 0
39 37 22 0
36 35 28 0
35 34 27 0
34 33 26 0
33 32 25 0
32 31 24 0
31 30 23 0
30 29 22 0
66 61 21 0
65 60 20 0
64 59 19 0
63 58 18 0
62 57 17 0
61 56 16 0
55 51 21 0
54 50 20 0
53 49 19 0
52 48 18 0
51 47 17 0
50 46 16 0
45 42 21 0
44 41 20 0
43 40 19 0
42 39 18 0
41 38 17 0
40 37 16 0
36 34 21 0
35 33 20 0
34 32 19 0
33 31 18 0
32 30 17 0
31 29 16 0
28 27 21 0
27 26 20 0
26 25 19 0
25 24 18 0
24 23 17 0
23 22 16 0
66 60 15 0
65 59 14 0
64 58 13 0
63 57 12 0
62 56 11 0
55 50 15 0
54 49 14 0
53 48 13 0
52 47 12 0
51 46 11 0
45 41 15 0
44 40 14 0
43 39 13 0
42 38 12 0
41 37 11 0
36 33 15 0
35 32 14 0
34 31 13 0
33 30 12 0
32 29 11 0
28 26 15 0
27 25 14 0
26 24 13 0
25 23 12 0
24 22 11 0
21 20 15 0
20 19 14 0
19 18 13 0
18 17 12 0
17 16 11 0
66 59 10 0
65 58 9 0
64 57 8 0
63 56 7 0
55 49 10 0
54 48 9 0
53 47 8 0
52 46 7 0
45 40 10 0
44 39 9 0
43 38 8 0
42 37 7 0
36 32 10 0
35 31 9 0
34 30 8 0
33 29 7 0
28 25 10 0
27 24 9 0
26 23 8 0
25 22 7 0
21 19 10 0
20 18 9 0
19 17 8 0
18 16 7 0
15 14 10 0
14 13 9 0
13 12 8 0
12 11 7 0
66 58 6 0
65 57 5 0
64 56 4 0
55 48 6 0
54 47 5 0
53 46 4 0
45 39 6 0
44 38 5 0
43 37 4 0
36 31 6 0
35 30 5 0
34 29 4 0
28 24 6 0
27 23 5 0
26 22 4 0
21 18 6 0
20 17 5 0
19 16 4 0
15 13 6 0
14 12 5 0
13 11 4 0
10 9 6 0
9 8 5 0
8 7 4 0
66 57 3 0
65 56 2 0
55 47 3 0
54 46 2 0
45 38 3 0
44 37 2 0
36 30 3 0
35 29 2 0
28 23 3 0
27 22 2 0
21 17 3 0
20 16 2 0
15 12 3 0
14 11 2 0
10 8 3 0
9 7 2 0
6 5 3 0
5 4 2 0
66 56 1 0
55 46 1 0
45 37 1 0
36 29 1 0
28 22 1 0
21 16 1 0
15 11 1 0
10 7 1 0
6 4 1 0
3 2 1 0
